/*********************************************
 * OPL 22.1.1.0 Data
 * Author: Fabricio
 * Creation Date: 3 abr. 2024 at 18:39:52
 *********************************************/
Productos = {"amoniaco", "cloruro_amonico"};
Componentes = {"nitrogeno", "hidrogeno", "oxigeno"};

demanda = [[1, 3, 0], [1, 4, 1]];
beneficio = [40, 50];
stock = [50, 180, 40];